
 102   30
  10   10   10   10   10   10   10   10   10   10   10   10   10   10   10   10   10   10   10   10   10   10   10   10   10   10   10   10   10   10

   0   0   0   0   0   0   0   0   0   0   0   0   0   0   0   0   0   0   0   0   0   0   0   0   0   0   0   0   0   0   0  32 2 3 4 5 6 7 8 9 10 11 12 13 14 15 16 17 18 19 20 21 22 23 25 27 28 29 30 33 35 36 44 53 
  10   0   0   0   0   0   0   0   0   0   0   0   0   0   2   0   0   0   0   0   0   3   0   0   0   6   0   0   0   0   0  15 101 100 76 67 59 58 54 50 46 41 39 37 34 31 26 
   6   1   0   0   0   0   0   0   0   1   0   1   0   0   0   5   0   0   0   0   0   0   0   0   0   0   0   0   0   0   0  14 101 100 70 69 67 62 61 59 58 50 42 41 32 26 
   7   0   0   0   0   0   0   0   0   8   1   0   0   4   0   0   0   0   0   0   4   6   0   0   0   0   0   0   2   0   0  14 100 96 76 69 67 66 57 52 47 46 42 39 38 32 
   3   0   5   0   0   0   0   0   1   0   5   0   0   4   0   0   0   0   0   0   3   0   0   0   0   5   0   0   0   1   0  16 99 76 75 73 70 62 59 58 56 55 54 51 50 49 48 41 
  10   6   5   0   0   0   1   0   0   0   0   0   0   0   0   0   0   0   0   3   0   0   0   0   2   2   0   0   0   0   0  13 100 89 75 74 68 67 62 61 58 55 50 32 31 
  10   0   0   0   0   0   0   0   0   0   0   8   0   0   0   0   1   0   0   0   0   0   0   0   7   0   0   0   0   3   0  10 76 75 70 62 59 50 48 45 43 32 
  10   0   0   0   0   0   0   2   0   0   0   0   0   0   8   0   0   0   0   0   0   0   0   5   0   5   0   1   0   6   0   9 100 97 74 68 59 58 52 51 24 
  10   6   0   0   0   0   0   0   0   0   0   0   0   0   0   0   0   1   0   0   0   0   0   2   5   0   0   0   0   0   0  13 101 96 75 74 72 68 61 58 55 54 51 49 31 
   8   0   0   0   0   0   0   0   6   0   0   0   0   0   0   8   6   0   1   7   0   0   0   0   0   0   0   0   0   0   0  13 101 99 98 76 75 64 58 55 54 51 50 46 45 
   8   0   0   1   0   0   2   1   0   0   0   0   0   0   0   0   0   0   0   4   0   3   0   4   0   0   1   0   0   0   0  12 99 97 76 66 61 59 58 55 52 51 50 45 
   1   0   0   0   0   0   0   0   0   0   0   0   0   0   0   0   0   0   0   0   0   0   1   0   0   0   0   0   0   0   1  11 101 89 76 74 69 59 58 55 50 32 31 
   6   0   0   0   0   0   0   0   3   0   0   0   0  10   0   0   0   0   0   0   0   0   0   0   0   0   0   0   0   7   5   8 100 87 67 66 56 40 37 34 
   1   0   0   0   0   1   0   5   0   0   0   0   3   0   0   0   5   5   0   0   0   0   0   8   0   0   7   0   0   0   0  18 100 99 98 97 94 90 89 85 76 74 70 68 67 61 59 58 54 50 
   1   0   0   0   0   0   0   0   0   0   0   9   0   0   9   0   5   0   0   0   0   0   0   0   0   0   0   0   0   0   0  14 101 99 98 97 94 93 89 69 64 62 61 54 50 45 
   1   0   0   0   0   6   0   0   7   0   0   0   0   0   0   0   0   0   6   0   0   0   0   0   0   0   0   0   0   0   0  11 99 96 74 67 61 59 58 55 51 48 31 
   7   0   0   8   0   0   5   0   0   0   4   0   0   0   0   0   0   0   0   0   0   0   0   0   0   0   0   0   0   0   0  11 101 100 98 96 75 74 58 56 55 51 31 
   1   0   7   0   0   0   0   9   0   0   0   0   0   5   0   0   0   0   0   0   0   0   0   0   0   0   0   0   8   5   0   9 101 96 70 66 62 60 55 42 38 
   6   0   0   0   0   0   0   0   0   0   5   0   0   0   0   0   0   0   0   0   4   7   0   0   0   0   0   0   0   0   8  15 100 99 98 97 93 89 75 68 66 64 61 60 55 51 50 
   4   0   0   0   0   0   0   6   0   0   0   0   0   0   0   0   0   0   0   0   0   0   0   0   0   0   0   0   0   0   0  15 101 100 96 93 90 86 85 74 72 66 65 63 61 59 39 
   1   0   0   0   0   0   5   0   0  10   0   0   0   0   8   0   0   0   0   0   0   0   0   0   0   0   0   0   0   0   0  14 101 100 98 97 91 90 74 69 67 66 63 60 58 50 
   2   0   0   0   0   0   0   6   0   0   0   0   3   0   0   0   0   0   0   0   0   0   0   0  10   0   0   0   0   0   0  16 99 97 95 92 90 89 86 85 78 76 74 73 63 61 58 50 
   5   0   0   8   4   0   0   0   0   0   0   6   0   3   0   7   0   0   0   0   0   0   0   0   0   0   0   0   4   9   0  15 101 98 97 94 90 89 83 73 68 66 64 63 62 60 58 
   1   0   0   0   0   0   0   0   0   0   0   0   7   0   0   0   0   0   0   0   0   0   8   0   0   0   0   0   9   0   0  12 98 91 89 81 75 73 69 66 64 60 55 50 
   6   0   7   0   0   9   0   0   7   5   0   0   0   0   3   0   0   0   0   0   0   0   5   4   0   0   0   0   0   0   0  13 97 93 92 90 89 86 85 84 74 73 66 63 50 
   2   0   9   0   0   0   0   0   0   0   0   0   0   0   0   0   0   0   0   6   0   0   0   0   5   3   0   0   7   0   5  16 98 97 96 94 89 84 83 82 81 80 75 72 71 68 64 60 
   2   0   6   0   8   0   0   0  10   0   0   0   0   0   0   0   8   0   0   0   0   0   0   0   0   0   0   0   0   0   0  14 98 94 93 88 86 85 76 75 71 68 67 65 63 61 
   1   0   6   0   0   0   0   0   0   8   0   8   0   0   0   0   0   5   0   0   0   0   0   0   0   0   8   0   4   0   0  12 96 94 93 89 88 85 83 73 72 71 68 51 
   7   0   0   0   3   0   0   0   0   0   0   0   0   0   0   0   0   0   0   0   0   0   9   0   0  10   0   5   0   0   0  11 98 96 92 88 85 74 67 64 61 57 51 
   6   0   0   0   0   0   0   0   0   0   7   0   0   0   0   0   0   0   0   0   0   0   0   0   8   0   0   0   0   0   0  16 94 93 91 90 88 87 84 83 82 81 80 74 73 72 69 60 
   8   0   0   0   0   0   0   0   0   0   0   5   5   0   5   0   7   0   7   0   0   0   0   0   8   0   0   0   0   0   0  12 97 93 91 87 84 81 73 71 66 65 64 60 
   6   0   0   0   7   8   0   0   0   0   0   0   0   0   0   0   0   0   0   0   0   7   4   0   0   0   0   0   4   0   0  12 99 98 95 93 92 91 88 87 86 85 83 51 
   2   0   0   0   0   0   0   0   0   0   0   0   8   0   0   0   0   0   0   5   0  10   0   0   0   0   0   5   0   0   0  15 101 98 96 94 93 90 89 88 87 84 80 78 74 72 63 
   1   0   0   0  10   0   0   0   0   0   0   0   0   0   0   0   7   0   0   0   0   0   0   0   0   0   6   0   0   0   0  14 99 98 96 91 89 84 83 82 81 80 79 71 70 62 
   1   0   0   6   4   0   0   4   0   0   7   0   0   0   0   6   0   0   0   0   0   0   0   0   0   4   0   0   0   0   0  13 98 96 91 88 87 84 83 80 79 78 72 63 60 
   3   0   0   0   0  10   7   0   0   0   0   0   0   0   0   0   0   0   0   0   0   0   0   0   0   8   0   6   0   0   0  11 94 93 89 85 84 81 72 71 69 66 59 
   2   0   0   0   0   0   0   0   0   4   9   0   0   0   0   0   0   0   0   0   7   0   0   0   0   0   0   0   0   0   0  10 99 95 94 91 89 85 83 74 71 51 
   6   0   0   4   6   0   0   0   0   8   0   0   0   0   0   0   0   0   0   0   5   0   0   0   0   0   0   0  10   8   0  13 99 94 93 89 86 84 81 80 73 72 71 65 64 
   7   0   5   0   0   0   0   0   0   0   0   0   0   0   5   0   0   0   7   0   0   0   0   0   0   0   0   0   0   0   0  11 98 92 91 89 82 81 80 73 71 64 55 
   7   0   0   0   0   0   0   0   0   0   0   0   0   0   0  10   0   0   0   0   5   0   0   5   0   5   0   0   0   0   5  11 95 89 84 82 74 73 72 71 64 61 60 
   3   0   2   0   0   0   5   8   0   0   0   0  10   0   0   0   0   0   0  10   0   0   0   0   0   0   0   0   0   7   0  13 97 96 89 88 87 86 85 80 79 72 71 65 63 
   8   0   0   0   0   0   0   0   0   0   0   0   0   0   0   0   0   0   0   0   0   0   6   0   0   0   0   0   0   0   0   8 91 90 80 74 73 71 63 56 
   3   0   0   0   0   0   0   5   5   0   0   0   0   0   0   0   0   0   0   0   0   0   0   0   0   0   0   8   0   0   0  15 97 96 95 93 88 87 86 85 83 82 81 80 78 73 72 
   7   0   4   0   0   0   0   0   0   5   8   0   0   0   0   0   0   0   0   0   0   0   0   0   0   0   0   0   0   0   0  12 97 96 95 94 90 84 80 79 73 72 65 63 
   8   0   0   0   0   0   0   0   0   0   0   0   0   0   0   0   6   0   0   0   6   0   0   0   6   9   0   0   0   0   0  11 95 91 90 83 81 80 78 74 73 72 60 
   9   9   0   0   0   0   0   0   0   0   0   6   4   0   0   0   0   7   0   0   0   0   0   0   0   0   0   0   0   0   0   8 97 90 87 86 80 78 63 61 
   4   0   0   4   0   0   0   0   8   0   6   0   0   0   0   0   0   0   0   0   0   4   0   0   0   0   0   0   0   0   0   8 95 90 89 85 80 73 64 61 
  10   6   0   0   0   0   0   0   0   0   0   0   0   0   0   0   0   0   0   4   0   0   0   0   0   0   0   0   0   0   0  10 100 95 94 90 89 87 82 79 78 71 
   6   0   0   8   6   0   0  10   0   0   0   6   0   0   5   0   0   0   4   0   0   7   0   0   0   0   0   0   0   0   0   9 100 94 92 90 89 88 81 77 67 
   3   0   0   0   0   0   0   0   0   0   0   0   0   0   0   4   6   0   0   0   0   0   0   0   0   0   0   0   0   0   9   7 96 87 80 79 72 71 65 
   4   0   0   0   8   0   0   0   0   0   0   0   0   0   0   0   3   0   0   0   0   0   0   0   0   0   0   0   0   0   0   7 90 84 80 79 78 77 63 
   4   0   0   0   3   5   0   0   0   0   0   0   4   0   0   0   0   0   0   0   0   0   0   0   0   0   0   0   0   0   0   8 101 98 89 87 83 79 78 77 
   2   0   0   0   0   0   0   0   0   0   0   0   0   0   0   7   0   0   0   0  10   0   4  10   0   9   0   0   0   0   0   7 94 93 90 83 80 78 73 
   5   0   0   0   0   0   0   0   0   0   0   0   0   0   8   0   0   0   9   0   0   0   0   0   0   0   0   0   0   0   0   4 86 84 66 63 
   7   0   0   0   0   7   0   0   0   0   0   0   0   0   0   0   0   0   0   0   0   0   0   0   0   0   0   0   0   0   0   6 94 87 84 83 78 77 
   4   0   0   0   0   0   0   0   0   0   0   0   0   0   0   4   0   0   0   0   9   6   0   5   0   0   0   0   0   0   0   6 97 89 85 83 78 77 
   9   0   0   0   0   0   0   0   0   0   0   0   6   9   0   0   0   0   0   0   0   0   0   0   0   0   0   0   0   0   0   5 95 86 84 79 71 
   6   0   0   0   9   0   0   0   0   0   0   0   0   0   0  10   0   0   0   0   0   0   0   0   0   0   0   0   0   0   0   5 93 88 84 80 77 
   4   0   7   0   0   4   0   0   6   0   0   0   4   0   0   0   0   0   0   0   0   0   0   0   0   0   0   0   0   0   0   3 92 80 64 
  10   0   0   0   0   0   0   0   0   0   6   0   0   0   0   0   0   0   0   0   0   7   0   0   0   0   0   0   0   0   0   3 92 86 85 
   3   0   0   0   0   0   0   0   0   0   0   0   0   0   0   0   0   0   0   0   0   5   4   0   0   0   0   9   6   0   0   3 81 79 77 
   7   0   0   0   0   8   0   0   0   0   0   0   0   0   0   3   0   0   0   0   0   0   8   9   0   0   0   0   0   0   0   3 95 85 78 
   3   0   0   9   0   0   0   0   0   0   0   0   0   0   0   0   0   0   0   0   0   7   0   0   0   0   0   0   0   0   0   2 82 81 
   5   4   0   0   0   0  10   2   0   0   0   0   0   0   0   0   0   8   0   0   0   0   0   0   0   0   0   9   0   0   0   2 79 78 
  10   0   0   0   8   0   0   0   9   0   0   0   0   0   0   3   0   0   0   0   6   0   8   0   0   7   0   0   0   8   0   2 83 82 
  10   0   0   0   0   0   0   0   6   0   0   0   0   0   0   0   0   0   0   0   0   0   0   0   0   0   0   0   0   0   0   2 88 78 
  10   7   7   0   0   0   0   0   0   0   0   0   0   0   0   0  10   0   0   0   8   0  10   0   0   0   0   5   0   0   0   2 80 78 
   2   3   0   0   0   0   0   8   0   0   0   0   0   0   0   0   0   0   0   0   0   0   0   0   0   0   0   0   0   0   0   2 91 87 
   6   0   0   0   0   0   0   9   0   0   6   0   0   0   0   0   0   0   0   5   0   0   0   0   0   0   0   0   0   0   0   2 86 77 
  10   0   0   0   0   0   0   0   7   0   0   0   0   7  10   0   7   0   0   0   0   0   0   0   0   0   0   0   0   0   0   2 93 77 
   1   0   0   0   4   0   0   0   0   0   0   4   0   0   0   0   0   0   0   0   0   0   0   0   0   0   0   0   5   7   0   1 77 
   1   0   0   7   0   0   0   0   0   0   0   0   0   3   0   0   0   0   0   0   0   0   0   0   0   0   0   0   0   0   0   1 77 
   2   7   0   0   0   0   6   0   0   0   0   0   7   0   0   0   0   0   0   0   0   0   0   0   0   0   0   0   0   0   0   1 77 
   3   0  10   0   0   0   0   0   0   0   0   0   0   0   0   0   0   0   0   0   0   0  10   0   0   0   0   0   0   0   0   1 79 
   9   0   0   0   0   0   0   0   3   0   0   0   9   0   0   1   0   0   0   0   0   0   0   0   0   0   0   0   0   5   0   1 95 
   3   0   0   0   0   6   9   0   0   0   0   0   0   0   0   0   0   0   0   0   0   0   0   6   0   0   0   3   0   0   0   1 91 
   6   0   0   0   0   0   0   0   0   4   0   0   0   0   5   0   0   0   0   0   0   0   5   0   0   0   0   8   0   0   0   1 102
   4   0   8   0   0   0   0   0   0   0   0   0   8   0   0   0   0   0   0   0   0   0   0   0   0   0   9   0   0   0   0   1 102
   4   0   0   0   0   0   0   0   0   0   0   0   0   0   0  10   0   0   0   6   0   0   0   0   0   0   0   0   0   0   7   1 102
   8   0   0   0   0   3   0   0   3   0  10   0   0   0   0   0   0   0   0   0   0   0   2   0   0   0   0   0   0   0   0   1 102
   6   0   0   5   0   0   0   0   0   0   0   9   9   8   0   5   0   0   0   0   0   0   0   0   0   0   0   0   0   0   0   1 102
   6   0   0   0   0   0   8   0   0   0   0   0   0   0   0   0   0   0   0   8   0   0   0   0   0   0   0   0   0   0   0   1 102
   2   0   0   0   0   0   0   0   0   0   0   0   0   0   0   0   0   0   0   0   0   0   0   0   0   0   0   0   0   0   0   1 102
   9   0   0   6   0   0   0   0   0   0   0   0   0   0   0   0   0   0   0   0   0   0   0   0   0   0   0   0   0   0   0   1 102
   4   0   0   0   5   0   0   0   0   0   0   0   0   0   4   0   0   0   0   0   5   0   2   0   0   0   0   0   0   0   6   1 102
   3   0   0   0   0   0   0   0   0   0   0   0   0   0   0   0   0   0   7   0   0   0   0   0   0   9   0   0   0   0   6   1 102
   4   0   0   0   0   6   0   0   7   0   0   0   0   6   0   0   0   0   0   0   6   0   0   0   0   0   0   0   0   0   0   1 102
   3   0   0   0   0   0   0   0   0   0   0   0   0   5   0   6   0   0   0   0   0   0   0   0   0   0   0   0   0   0   0   1 102
  10   0   7   0   4   0   0   6   0   7   0   0   0   0   0   6   0  10   0   3   0   7   0   0   0   3   0   0   0   9   0   1 102
   4   0   0   0   0   5   8   0   0   0   0   0   5   0   0   0   0   0   0   0   0   0   0   0   3   0   0   0   0   0   0   1 102
   3   6   5   0   0   5   0  10   7   0   0   0   0   0   0   0   0   0   0   0   7   0   0   0   0   0   0   7   4   0   0   1 102
   7   0   5   0   0   0   0   0   0   0   4   4   5   0   0   5   0   0   0   0   0   0   0   0   0   0   0   0   0   0   0   1 102
   7   0   0   0   0   0   0   0   0   0   0   0   0   0   0   0   7   0   7   0   0   0  10   0   0   0   0   0   0   0   8   1 102
   9   0   0   0   0   0   0   0  10   0   0   0   0   0   0   0   0   0   0   7   0   0   0   0   0   0   0   0   9   5   0   1 102
   4   0   3   0   0   0   0   0   0   0   0   6   0   0   0   0   0   0   0   0   0   3   0   0   0   0   5   0   0   0   0   1 102
   4   0   0   0   0   0   0   5   0   0   0   0   0   0   0   4   0   0   0   0   5   0   0   0   0   0   0   0   0   0   0   1 102
   5   0   0   0   0   0   0   0   0   0   0   0   0   0   0   0   0   0   0   0   0   0   0   0   0   0   0   0   0   0   0   1 102
   6   0   0   0   0   0   0   0   3   0   0   0   0   8   0   0   0   0   0   0   0   4   0   8   0   0   0   0   0   0   0   1 102
   5   9   0   0   0   0   0   0   0   0   0   0   0   0   0   0   6   0   0   0   0  10   0   0   0   0   0   0   0   0   0   1 102
   5   8   0   0   0   0   0   0   0   0   0   0   5   0   0  10   0   0   0  10   0   0   0   0   0   0   0   0   0   0   0   1 102
   6   0   0   6   7   7   6   0   0   0   0   0   0   0   0   0   0   0   0   0   0   0   0   0   0   5   0   0   0   4   0   1 102
   0   0   0   0   0   0   0   0   0   0   0   0   0   0   0   0   0   0   0   0   0   0   0   0   0   0   0   0   0   0   0   0 
